Linux optc-09-11 4.15.0-58-generic #64-Ubuntu SMP Tue Aug 6 11:12:41 UTC 2019 x86_64 x86_64 x86_64 GNU/Linux

top - 01:24:37 up 1 day, 15:25,  0 users,  load average: 0,26, 0,74, 0,77
Tasks: 292 gesamt,   1 laufend, 149 schlafend,   0 gestoppt,   0 Zombie
%CPU(s):  5,9 be,  0,3 sy,  0,0 ni, 93,8 un,  0,0 wa,  0,0 hi,  0,0 si,  0,0 st
KiB Spch : 97514992 gesamt, 95492336 frei,   649440 belegt,  1373224 Puff/Cache
KiB Swap:  8388604 gesamt,  8388604 frei,        0 belegt. 96124512 verfü Spch 

  PID USER      PR  NI    VIRT    RES    SHR S  %CPU %MEM     ZEIT+ BEFEHL
    1 root      20   0  233816   9536   6820 S   0,0  0,0   0:12.82 systemd
    2 root      20   0       0      0      0 S   0,0  0,0   0:00.15 kthreadd
    3 root      20   0       0      0      0 I   0,0  0,0   0:00.00 kworker/0:0
    4 root       0 -20       0      0      0 I   0,0  0,0   0:00.00 kworker/0:+
    6 root      20   0       0      0      0 I   0,0  0,0   0:00.00 kworker/u3+
    7 root       0 -20       0      0      0 I   0,0  0,0   0:00.00 mm_percpu_+
    8 root      20   0       0      0      0 S   0,0  0,0   0:00.01 ksoftirqd/0
    9 root      20   0       0      0      0 I   0,0  0,0   0:13.56 rcu_sched

hard time limit: 04:10:00
hard mem limit: 55100

SLURM jobID: 2182765

@01 /nfs/optimi/kombadon/IP/coral/neos-799838.mps.gz ===========
-----------------------------
Fr 23. Aug 01:24:37 CEST 2019
-----------------------------
@03 1566516277
@05 7200
SCIP version 6.0.0 [precision: 8 byte] [memory: block] [mode: optimized] [LP solver: CPLEX 12.8.0.0] [GitHash: 41ab6e0014]
Copyright (C) 2002-2018 Konrad-Zuse-Zentrum fuer Informationstechnik Berlin (ZIB)

External codes: 
  Readline 7.0         GNU library for command line editing (gnu.org/s/readline)
  CPLEX 12.8.0.0       Linear Programming Solver developed by IBM (www.cplex.com)
  CppAD 20180000.0     Algorithmic Differentiation of C++ algorithms developed by B. Bell (www.coin-or.org/CppAD)
  ZLIB 1.2.11          General purpose compression library by J. Gailly and M. Adler (zlib.net)
  GMP 6.1.2            GNU Multiple Precision Arithmetic Library developed by T. Granlund (gmplib.org)
  bliss 0.73p          Computing Graph Automorphism Groups by T. Junttila and P. Kaski (http://www.tcs.hut.fi/Software/bliss/)

user parameter file <scip.set> not found - using default parameters

SCIP> 
SCIP> set load /home/optimi/bzfhende/opti/scip-opti/check/../settings/enable_treeeprofile.set
loaded parameter file </home/optimi/bzfhende/opti/scip-opti/check/../settings/enable_treeprofile.set>
SCIP> set misc referencevalue 1308000
misc/referencevalue = 1308000
SCIP> set limits time 7200
limits/time = 7200
SCIP> set limits nodes 2100000000
limits/nodes = 2100000000
SCIP> set limits memory 50000
limits/memory = 50000
SCIP> set lp advanced threads 1
lp/threads = 1
SCIP> set timing clocktype 1
timing/clocktype = 1
SCIP> set display freq 10000
display/freq = 10000
SCIP> set memory savefac 1.0
memory/savefac = 1
SCIP> set save /home/optimi/bzfhende/opti/scip-opti/check/treesize.estimation.jouurnal.3/bzfhende.MMMc.301_neos-799838.scip.M640.enable_treeprofile.set
saved parameter file </home/optimi/bzfhende/opti/scip-opti/check/treesize.estimation.journal.3/bzfhende.MMMc.301_neos-799838.scip.M640.enable_treeprofile.set>
SCIP> read /nfs/optimi/kombadon/IP/coral/neos-799838.mps.gz

read problem </nfs/optimi/kombadon/IP/coral/neos-799838.mps.gz>
============

original problem has 20844 variables (20844 bin, 0 int, 0 impl, 0 cont) and 5976 constraints
SCIP> display parameters

number of parameters = 2448
non-default parameter settings:
display/freq = 10000
limits/time = 7200
limits/nodes = 2100000000
limits/memory = 50000
lp/threads = 1
memory/savefac = 1
misc/referencevalue = 1308000
presolving/maxrestarts = 0
estimates/profile/enabled = TRUE
estimates/profile/maxdepthfactor = 10
estimates/profile/freq = 0

SCIP> optimize

Activating tree profile data collection
presolving:
(round 1, fast)       432 del vars, 432 del conss, 0 add conss, 0 chg bounds, 0 chg sides, 36 chg coeffs, 0 upgd conss, 0 impls, 4392 clqs
(round 2, exhaustive) 432 del vars, 432 del conss, 0 add conss, 0 chg bounds, 0 chg sides, 36 chg coeffs, 4464 upgd conss, 0 impls, 4392 clqs
(round 3, medium)     2340 del vars, 2376 del conss, 1152 add conss, 0 chg bounds, 0 chg sides, 36 chg coeffs, 4464 upgd conss, 0 impls, 5544 clqs
(round 4, fast)       2340 del vars, 4106 del conss, 2882 add conss, 0 chg bounds, 0 chg sides, 36 chg coeffs, 4464 upgd conss, 0 impls, 7451 clqs
(round 5, medium)     2374 del vars, 4140 del conss, 2882 add conss, 0 chg bounds, 0 chg sides, 36 chg coeffs, 4464 upgd conss, 0 impls, 7417 clqs
(round 6, fast)       2374 del vars, 4174 del conss, 2916 add conss, 0 chg bounds, 0 chg sides, 36 chg coeffs, 4464 upgd conss, 0 impls, 7451 clqs
(round 7, exhaustive) 2374 del vars, 4174 del conss, 2916 add conss, 0 chg bounds, 0 chg sides, 72 chg coeffs, 6228 upgd conss, 0 impls, 7451 clqs
(round 8, medium)     2412 del vars, 4212 del conss, 2916 add conss, 0 chg bounds, 0 chg sides, 72 chg coeffs, 6228 upgd conss, 0 impls, 7414 clqs
(round 9, fast)       2412 del vars, 4250 del conss, 2954 add conss, 0 chg bounds, 0 chg sides, 72 chg coeffs, 6228 upgd conss, 0 impls, 7452 clqs
(round 10, exhaustive) 2412 del vars, 4250 del conss, 2954 add conss, 0 chg bounds, 0 chg sides, 108 chg coeffs, 6266 upgd conss, 0 impls, 7452 clqs
(round 11, exhaustive) 4284 del vars, 4250 del conss, 2954 add conss, 0 chg bounds, 0 chg sides, 144 chg coeffs, 6266 upgd conss, 0 impls, 6587 clqs
(round 12, fast)       4572 del vars, 4538 del conss, 2954 add conss, 0 chg bounds, 0 chg sides, 144 chg coeffs, 6266 upgd conss, 0 impls, 6371 clqs
(round 13, exhaustive) 4572 del vars, 4538 del conss, 2954 add conss, 0 chg bounds, 0 chg sides, 180 chg coeffs, 6338 upgd conss, 0 impls, 6371 clqs
(round 14, medium)     4644 del vars, 4610 del conss, 2954 add conss, 0 chg bounds, 0 chg sides, 180 chg coeffs, 6338 upgd conss, 0 impls, 6299 clqs
(round 15, fast)       4644 del vars, 4682 del conss, 3026 add conss, 0 chg bounds, 0 chg sides, 180 chg coeffs, 6338 upgd conss, 0 impls, 6371 clqs
(round 16, exhaustive) 4644 del vars, 4682 del conss, 3026 add conss, 0 chg bounds, 0 chg sides, 180 chg coeffs, 6410 upgd conss, 0 impls, 6371 clqs
(round 17, medium)     4680 del vars, 4718 del conss, 3026 add conss, 0 chg bounds, 0 chg sides, 180 chg coeffs, 6410 upgd conss, 0 impls, 6319 clqs
(round 18, medium)     4716 del vars, 4754 del conss, 3026 add conss, 0 chg bounds, 0 chg sides, 180 chg coeffs, 6410 upgd conss, 0 impls, 6305 clqs
(round 19, exhaustive) 4788 del vars, 4754 del conss, 3026 add conss, 0 chg bounds, 0 chg sides, 180 chg coeffs, 6410 upgd conss, 0 impls, 6304 clqs
   (2.4s) probing: 1000/16056 (6.2%) - 0 fixings, 0 aggregations, 260092 implications, 0 bound changes
   (2.4s) probing: 1001/16056 (6.2%) - 0 fixings, 0 aggregations, 260315 implications, 0 bound changes
   (2.4s) probing aborted: 1000/1000 successive useless probings
presolving (20 rounds: 20 fast, 14 medium, 8 exhaustive):
 4788 deleted vars, 4754 deleted constraints, 3026 added constraints, 0 tightened bounds, 0 added holes, 0 changed sides, 180 changed coefficients
 0 implications, 266619 cliques
presolved problem has 16056 variables (16056 bin, 0 int, 0 impl, 0 cont) and 4248 constraints
     36 constraints of type <knapsack>
   3204 constraints of type <setppc>
   1008 constraints of type <linear>
transformed objective value is always integral (scale: 1000)
Presolving Time: 2.43

 time | node  | left  |LP iter|LP it/n| mem |mdpt |frac |vars |cons |cols |rows |cuts |confs|strbr|  dualbound   | primalbound  |  gap   
  3.5s|     1 |     0 |  5132 |     - | 171M|   0 | 303 |  16k|4448 |  16k|4248 |   0 | 199 |   0 | 1.158000e+06 |      --      |    Inf 
F 4.8s|     1 |     0 |  9065 |     - | 175M|   0 |   0 |  16k|4448 |  16k|4248 |   0 | 199 |   0 | 1.158000e+06 | 1.408000e+06 |  21.59%
  7.5s|     1 |     0 |  9613 |     - | 178M|   0 | 246 |  16k|4448 |  16k|4257 |   9 | 199 |   0 | 1.158000e+06 | 1.408000e+06 |  21.59%
  7.9s|     1 |     0 | 10454 |     - | 178M|   0 | 272 |  16k|4448 |  16k|4261 |  13 | 199 |   0 | 1.158000e+06 | 1.408000e+06 |  21.59%
  8.2s|     1 |     0 | 11159 |     - | 179M|   0 | 245 |  16k|4449 |  16k|4269 |  21 | 200 |   0 | 1.158000e+06 | 1.408000e+06 |  21.59%
  8.6s|     1 |     0 | 12006 |     - | 180M|   0 | 221 |  16k|4449 |  16k|4278 |  30 | 200 |   0 | 1.158000e+06 | 1.408000e+06 |  21.59%
  8.9s|     1 |     0 | 12856 |     - | 181M|   0 | 248 |  16k|4449 |  16k|4288 |  40 | 200 |   0 | 1.158000e+06 | 1.408000e+06 |  21.59%
  9.3s|     1 |     0 | 13821 |     - | 181M|   0 | 167 |  16k|4450 |  16k|4302 |  54 | 201 |   0 | 1.158000e+06 | 1.408000e+06 |  21.59%
  9.7s|     1 |     0 | 14994 |     - | 182M|   0 | 347 |  16k|4450 |  16k|4310 |  62 | 201 |   0 | 1.160036e+06 | 1.408000e+06 |  21.38%
 10.1s|     1 |     0 | 15583 |     - | 183M|   0 | 330 |  16k|4451 |  16k|4317 |  69 | 202 |   0 | 1.161000e+06 | 1.408000e+06 |  21.27%
 10.5s|     1 |     0 | 16514 |     - | 183M|   0 | 322 |  16k|4452 |  16k|4323 |  75 | 203 |   0 | 1.162500e+06 | 1.408000e+06 |  21.12%
 11.1s|     1 |     0 | 18649 |     - | 184M|   0 | 316 |  16k|4453 |  16k|4334 |  86 | 204 |   0 | 1.192000e+06 | 1.408000e+06 |  18.12%
 11.6s|     1 |     0 | 19924 |     - | 186M|   0 | 170 |  16k|4459 |  16k|4341 |  93 | 210 |   0 | 1.283000e+06 | 1.408000e+06 |   9.74%
 11.9s|     1 |     0 | 20286 |     - | 186M|   0 | 179 |  16k|4459 |  16k|4351 | 103 | 210 |   0 | 1.308000e+06 | 1.408000e+06 |   7.65%
 12.2s|     1 |     0 | 20819 |     - | 187M|   0 | 152 |  16k|4459 |  16k|4357 | 109 | 210 |   0 | 1.308000e+06 | 1.408000e+06 |   7.65%
 time | node  | left  |LP iter|LP it/n| mem |mdpt |frac |vars |cons |cols |rows |cuts |confs|strbr|  dualbound   | primalbound  |  gap   
 12.8s|     1 |     0 | 21159 |     - | 187M|   0 | 186 |  16k|4460 |  16k|4361 | 116 | 211 |   0 | 1.308000e+06 | 1.408000e+06 |   7.65%
 13.0s|     1 |     0 | 21539 |     - | 188M|   0 | 188 |  16k|4460 |  16k|4367 | 122 | 211 |   0 | 1.308000e+06 | 1.408000e+06 |   7.65%
 13.3s|     1 |     0 | 21895 |     - | 189M|   0 | 161 |  16k|4460 |  16k|4377 | 132 | 211 |   0 | 1.308000e+06 | 1.408000e+06 |   7.65%
 13.6s|     1 |     0 | 22247 |     - | 189M|   0 | 193 |  16k|4461 |  16k|4382 | 137 | 212 |   0 | 1.308000e+06 | 1.408000e+06 |   7.65%
 13.9s|     1 |     0 | 22626 |     - | 190M|   0 | 118 |  16k|4463 |  16k|4392 | 147 | 214 |   0 | 1.308000e+06 | 1.408000e+06 |   7.65%
 14.1s|     1 |     0 | 22887 |     - | 190M|   0 |  52 |  16k|4463 |  16k|4396 | 151 | 214 |   0 | 1.308000e+06 | 1.408000e+06 |   7.65%
 14.6s|     1 |     0 | 23131 |     - | 191M|   0 |  57 |  16k|4463 |  16k|4386 | 154 | 214 |   0 | 1.308000e+06 | 1.408000e+06 |   7.65%
 14.7s|     1 |     0 | 23187 |     - | 191M|   0 |  56 |  16k|4463 |  16k|4387 | 155 | 214 |   0 | 1.308000e+06 | 1.408000e+06 |   7.65%
u15.0s|     1 |     0 | 23820 |     - | 191M|   0 |   - |  16k|4463 |  16k|4387 |   0 | 214 |   0 | 1.308000e+06 | 1.308000e+06 |   0.00%
SCIP nodes: 1 Estimation: -1
 15.0s|     1 |     0 | 23820 |     - | 191M|   0 |   - |  16k|4463 |  16k|4387 | 155 | 214 |   0 | 1.308000e+06 | 1.308000e+06 |   0.00%
Report 1
Time Elapsed: 14.98
  Tree Data        : 1 nodes (1 visited, 0 inner, 1 leaves, 0 open), progress: 1.0000
Tree Estimation    :       estim       value       trend  resolution      smooth
  wbe              :          -1           -           -           -           -
  tree profile     :          -1           -           -           -           -
  gap              :           1     1.00000     1.00000           1           1
  progress         :           1     1.00000     1.00000           1           1
  leaf-frequency   :           1     0.50000     1.00000           1           1
  ssg              :           1     0.00000    -1.00000           1           1
  open-nodes       :           1     0.00000     0.00000           1           1
End of Report 1


SCIP Status        : problem is solved [optimal solution found]
Solving Time (sec) : 14.98
Solving Nodes      : 1
Primal Bound       : +1.30800000000000e+06 (2 solutions)
Dual Bound         : +1.30800000000000e+06
Gap                : 0.00 %

SCIP> display statistics

SCIP Status        : problem is solved [optimal solution found]
Total Time         :      15.02
  solving          :      14.98
  presolving       :       2.43 (included in solving)
  reading          :       0.04
  copying          :       0.00 (0 times copied the problem)
Original Problem   :
  Problem name     : file
  Variables        : 20844 (20844 binary, 0 integer, 0 implicit integer, 0 continuous)
  Constraints      : 5976 initial, 5976 maximal
  Objective        : minimize, 11916 non-zeros (abs.min = 3000, abs.max = 50000)
Presolved Problem  :
  Problem name     : t_file
  Variables        : 16056 (16056 binary, 0 integer, 0 implicit integer, 0 continuous)
  Constraints      : 4248 initial, 4463 maximal
  Objective        : minimize, 9927 non-zeros (abs.min = 3, abs.max = 50)
Presolvers         :   ExecTime  SetupTime  Calls  FixedVars   AggrVars   ChgTypes  ChgBounds   AddHoles    DelCons    AddCons   ChgSides   ChgCoefs
  boundshift       :       0.00       0.00      0          0          0          0          0          0          0          0          0          0
  convertinttobin  :       0.00       0.00      0          0          0          0          0          0          0          0          0          0
  domcol           :       0.02       0.00      3       1944          0          0          0          0          0          0          0          0
  dualagg          :       0.00       0.00      0          0          0          0          0          0          0          0          0          0
  dualcomp         :       0.00       0.00      0          0          0          0          0          0          0          0          0          0
  dualinfer        :       0.00       0.00      0          0          0          0          0          0          0          0          0          0
  gateextraction   :       0.00       0.00      0          0          0          0          0          0          0          0          0          0
  implics          :       0.00       0.00     14          0          0          0          0          0          0          0          0          0
  inttobinary      :       0.00       0.00      0          0          0          0          0          0          0          0          0          0
  qpkktref         :       0.00       0.00      0          0          0          0          0          0          0          0          0          0
  redvub           :       0.00       0.00      0          0          0          0          0          0          0          0          0          0
  sparsify         :       0.06       0.00      1          0          0          0          0          0          0          0          0          0
  stuffing         :       0.00       0.00      0          0          0          0          0          0          0          0          0          0
  symbreak         :       0.00       0.00      0          0          0          0          0          0          0          0          0          0
  symmetry         :       0.00       0.00      0          0          0          0          0          0          0          0          0          0
  trivial          :       0.01       0.00     20          0          0          0          0          0          0          0          0          0
  tworowbnd        :       0.00       0.00      0          0          0          0          0          0          0          0          0          0
  dualfix          :       0.00       0.00     20          0          0          0          0          0          0          0          0          0
  genvbounds       :       0.00       0.00      0          0          0          0          0          0          0          0          0          0
  orbitalfixing    :       0.00       0.00      0          0          0          0          0          0          0          0          0          0
  probing          :       1.98       0.00      1          0          0          0          0          0          0          0          0          0
  pseudoobj        :       0.00       0.00      0          0          0          0          0          0          0          0          0          0
  vbounds          :       0.03       0.00      3          0          0          0          0          0          0          0          0          0
  knapsack         :       0.08       0.00     38          0          0          0          0          0         36       1152          0        144
  setppc           :       0.12       0.00     38          0       2412          0          0          0       4286       1874          0          0
  linear           :       0.08       0.00     28          0        432          0          0          0        432          0          0         36
  logicor          :       0.00       0.00      0          0          0          0          0          0          0          0          0          0
  benders          :       0.00       0.00      0          0          0          0          0          0          0          0          0          0
  components       :       0.00       0.00      1          0          0          0          0          0          0          0          0          0
  root node        :          -          -      -          0          -          -          0          -          -          -          -          -
Constraints        :     Number  MaxNumber  #Separate #Propagate    #EnfoLP    #EnfoRelax  #EnfoPS    #Check   #ResProp    Cutoffs    DomReds       Cuts    Applied      Conss   Children
  benderslp        :          0          0          0          0          0          0          0         13          0          0          0          0          0          0          0
  integral         :          0          0          0          0          0          0          0         13          0          0          0          0          0          0          0
  knapsack         :         36         36         22       7747          0          0          0          8         43          1          0          0          0          0          0
  setppc           :       3204+      3220         22       7746          0          0          0          4        762         48          0          0          0          0          0
  linear           :       1008       1008         22       7698          0          0          0          2        132         19          0          0          0          0          0
  logicor          :          0+       199         22        186          0          0          0          0          0          0          0         30          1          0          0
  benders          :          0          0          0          0          0          0          0          3          0          0          0          0          0          0          0
  countsols        :          0          0          0          0          0          0          0          3          0          0          0          0          0          0          0
  components       :          0          0          0          0          0          0          0          0          0          0          0          0          0          0          0
Constraint Timings :  TotalTime  SetupTime   Separate  Propagate     EnfoLP     EnfoPS     EnfoRelax   Check    ResProp    SB-Prop
  benderslp        :       0.00       0.00       0.00       0.00       0.00       0.00       0.00       0.00       0.00       0.00
  integral         :       0.00       0.00       0.00       0.00       0.00       0.00       0.00       0.00       0.00       0.00
  knapsack         :       0.82       0.00       0.33       0.49       0.00       0.00       0.00       0.00       0.00       0.00
  setppc           :       0.49       0.00       0.01       0.48       0.00       0.00       0.00       0.00       0.00       0.00
  linear           :       0.49       0.00       0.45       0.04       0.00       0.00       0.00       0.00       0.00       0.00
  logicor          :       0.00       0.00       0.00       0.00       0.00       0.00       0.00       0.00       0.00       0.00
  benders          :       0.00       0.00       0.00       0.00       0.00       0.00       0.00       0.00       0.00       0.00
  countsols        :       0.00       0.00       0.00       0.00       0.00       0.00       0.00       0.00       0.00       0.00
  components       :       0.00       0.00       0.00       0.00       0.00       0.00       0.00       0.00       0.00       0.00
Propagators        : #Propagate   #ResProp    Cutoffs    DomReds
  dualfix          :          1          0          0          0
  genvbounds       :          0          0          0          0
  nlobbt           :          0          0          0          0
  obbt             :          0          0          0          0
  orbitalfixing    :          0          0          0          0
  probing          :          0          0          0          0
  pseudoobj        :         24          0          0          0
  redcost          :         23          0          0          0
  rootredcost      :          0          0          0          0
  vbounds          :       4161          0          0          0
Propagator Timings :  TotalTime  SetupTime   Presolve  Propagate    ResProp    SB-Prop
  dualfix          :       0.00       0.00       0.00       0.00       0.00       0.00
  genvbounds       :       0.00       0.00       0.00       0.00       0.00       0.00
  nlobbt           :       0.00       0.00       0.00       0.00       0.00       0.00
  obbt             :       0.00       0.00       0.00       0.00       0.00       0.00
  orbitalfixing    :       0.00       0.00       0.00       0.00       0.00       0.00
  probing          :       1.98       0.00       1.98       0.00       0.00       0.00
  pseudoobj        :       0.11       0.00       0.00       0.11       0.00       0.00
  redcost          :       0.01       0.00       0.00       0.01       0.00       0.00
  rootredcost      :       0.00       0.00       0.00       0.00       0.00       0.00
  vbounds          :       0.04       0.00       0.03       0.01       0.00       0.00
Conflict Analysis  :       Time      Calls    Success    DomReds  Conflicts   Literals    Reconvs ReconvLits   Dualrays   Nonzeros   LP Iters   (pool size: [10000,10000])
  propagation      :       0.00         46         46          -        228       16.1          3       26.7          -          -          -
  infeasible LP    :       0.00          0          0          -          0        0.0          0        0.0          0        0.0          0
  bound exceed. LP :       0.00          0          0          -          0        0.0          0        0.0          0        0.0          0
  strong branching :       0.00          0          0          -          0        0.0          0        0.0          -          -          0
  pseudo solution  :       0.00          0          0          -          0        0.0          0        0.0          -          -          -
  applied globally :       0.01          -          -          0        214       15.7          -          -          0          -          -
  applied locally  :          -          -          -          0          0        0.0          -          -          0          -          -
Separators         :   ExecTime  SetupTime      Calls    Cutoffs    DomReds       Cuts    Applied      Conss
  cut pool         :       0.00                    41          -          -        289          -          -    (maximal pool size: 685)
  aggregation      :       0.01       0.00         22          0          0          0          0          0
  cgmip            :       0.00       0.00          0          0          0          0          0          0
  clique           :       2.81       0.00         22          0          0          0         35          0
  closecuts        :       0.00       0.00          0          0          0          0          0          0
  cmir             :       0.00       0.00          0          0          0          0          0          0
  convexproj       :       0.00       0.00          0          0          0          0          0          0
  disjunctive      :       0.00       0.00          0          0          0          0          0          0
  eccuts           :       0.00       0.00          0          0          0          0          0          0
  flowcover        :       0.00       0.00          0          0          0          0          0          0
  gauge            :       0.00       0.00          0          0          0          0          0          0
  gomory           :       0.23       0.00         10          0          0          0         23          0
  impliedbounds    :       0.20       0.00         22          0          0          0          0          0
  intobj           :       0.00       0.00          0          0          0          0          0          0
  mcf              :       0.01       0.00          1          0          0          0          0          0
  oddcycle         :       0.00       0.00          0          0          0          0          0          0
  rapidlearning    :       0.00       0.00          0          0          0          0          0          0
  strongcg         :       0.52       0.00         20          0          0          0         12          0
  zerohalf         :       0.12       0.00         20          0          0          0         84          0
Pricers            :   ExecTime  SetupTime      Calls       Vars
  problem variables:       0.00          -          0          0
Branching Rules    :   ExecTime  SetupTime   BranchLP  BranchExt   BranchPS    Cutoffs    DomReds       Cuts      Conss   Children
  allfullstrong    :       0.00       0.00          0          0          0          0          0          0          0          0
  cloud            :       0.00       0.00          0          0          0          0          0          0          0          0
  distribution     :       0.00       0.00          0          0          0          0          0          0          0          0
  fullstrong       :       0.00       0.00          0          0          0          0          0          0          0          0
  inference        :       0.00       0.00          0          0          0          0          0          0          0          0
  leastinf         :       0.00       0.00          0          0          0          0          0          0          0          0
  lookahead        :       0.00       0.00          0          0          0          0          0          0          0          0
  mostinf          :       0.00       0.00          0          0          0          0          0          0          0          0
  multaggr         :       0.00       0.00          0          0          0          0          0          0          0          0
  nodereopt        :       0.00       0.00          0          0          0          0          0          0          0          0
  pscost           :       0.00       0.00          0          0          0          0          0          0          0          0
  random           :       0.00       0.00          0          0          0          0          0          0          0          0
  relpscost        :       0.00       0.00          0          0          0          0          0          0          0          0
Primal Heuristics  :   ExecTime  SetupTime      Calls      Found       Best
  LP solutions     :       0.00          -          -          0          0
  relax solutions  :       0.00          -          -          0          0
  pseudo solutions :       0.00          -          -          0          0
  strong branching :       0.00          -          -          0          0
  actconsdiving    :       0.00       0.00          0          0          0
  alns             :       0.00       0.00          0          0          0
  bound            :       0.00       0.00          0          0          0
  clique           :       0.06       0.00          1          0          0
  coefdiving       :       0.00       0.00          0          0          0
  completesol      :       0.00       0.00          0          0          0
  conflictdiving   :       0.00       0.00          0          0          0
  crossover        :       0.00       0.00          0          0          0
  dins             :       0.00       0.00          0          0          0
  distributiondivin:       0.00       0.00          0          0          0
  dualval          :       0.00       0.00          0          0          0
  farkasdiving     :       0.21       0.00          1          1          1
  feaspump         :       1.31       0.00          1          1          1
  fixandinfer      :       0.00       0.00          0          0          0
  fracdiving       :       0.00       0.00          0          0          0
  gins             :       0.00       0.00          0          0          0
  guideddiving     :       0.00       0.00          0          0          0
  indicator        :       0.00       0.00          0          0          0
  intdiving        :       0.00       0.00          0          0          0
  intshifting      :       0.00       0.00          0          0          0
  linesearchdiving :       0.00       0.00          0          0          0
  localbranching   :       0.00       0.00          0          0          0
  locks            :       0.04       0.00          1          0          0
  lpface           :       0.00       0.00          0          0          0
  mpec             :       0.00       0.00          0          0          0
  multistart       :       0.00       0.00          0          0          0
  mutation         :       0.00       0.00          0          0          0
  nlpdiving        :       0.00       0.00          0          0          0
  objpscostdiving  :       0.00       0.00          0          0          0
  octane           :       0.00       0.00          0          0          0
  ofins            :       0.00       0.00          0          0          0
  oneopt           :       0.00       0.00          1          0          0
  proximity        :       0.00       0.00          0          0          0
  pscostdiving     :       0.00       0.00          0          0          0
  randrounding     :       0.32       0.00         22          0          0
  rens             :       0.00       0.00          0          0          0
  reoptsols        :       0.00       0.00          0          0          0
  repair           :       0.00       0.00          0          0          0
  rins             :       0.00       0.00          0          0          0
  rootsoldiving    :       0.00       0.00          0          0          0
  rounding         :       0.01       0.00         22          0          0
  shiftandpropagate:       0.05       0.00          1          0          0
  shifting         :       0.00       0.00         22          0          0
  simplerounding   :       0.00       0.00         22          0          0
  subnlp           :       0.00       0.00          0          0          0
  trivial          :       0.02       0.00          2          0          0
  trivialnegation  :       0.00       0.00          0          0          0
  trysol           :       0.00       0.00          0          0          0
  twoopt           :       0.00       0.00          0          0          0
  undercover       :       0.00       0.00          0          0          0
  vbounds          :       0.09       0.00          1          0          0
  veclendiving     :       0.00       0.00          0          0          0
  zeroobj          :       0.00       0.00          0          0          0
  zirounding       :       0.00       0.00          1          0          0
  other solutions  :          -          -          -          0          -
Diving Statistics  :      Calls      Nodes   LP Iters Backtracks  Conflicts   MinDepth   MaxDepth   AvgDepth  RoundSols  NLeafSols  MinSolDpt  MaxSolDpt  AvgSolDpt
  actconsdiving    :          0          -          -          -          -          -          -          -          -          -          -          -          -
  coefdiving       :          0          -          -          -          -          -          -          -          -          -          -          -          -
  conflictdiving   :          0          -          -          -          -          -          -          -          -          -          -          -          -
  distributiondivin:          0          -          -          -          -          -          -          -          -          -          -          -          -
  farkasdiving     :          1          7        633          0          0          8          8        8.0          0          1          8          8        8.0
  fracdiving       :          0          -          -          -          -          -          -          -          -          -          -          -          -
  guideddiving     :          0          -          -          -          -          -          -          -          -          -          -          -          -
  linesearchdiving :          0          -          -          -          -          -          -          -          -          -          -          -          -
  pscostdiving     :          0          -          -          -          -          -          -          -          -          -          -          -          -
  veclendiving     :          0          -          -          -          -          -          -          -          -          -          -          -          -
Neighborhoods      :      Calls  SetupTime  SolveTime SolveNodes       Sols       Best       Exp3  EpsGreedy        UCB TgtFixRate  Opt  Inf Node Stal  Sol  Usr Othr Actv
  rens             :          0       0.00       0.00          0          0          0    0.00000   -1.00000    1.00000      0.900    0    0    0    0    0    0    0    1
  rins             :          0       0.00       0.00          0          0          0    0.00000   -1.00000    1.00000      0.900    0    0    0    0    0    0    0    1
  mutation         :          0       0.00       0.00          0          0          0    0.00000   -1.00000    1.00000      0.900    0    0    0    0    0    0    0    1
  localbranching   :          0       0.00       0.00          0          0          0    0.00000   -1.00000    1.00000      0.900    0    0    0    0    0    0    0    1
  crossover        :          0       0.00       0.00          0          0          0    0.00000   -1.00000    1.00000      0.900    0    0    0    0    0    0    0    1
  proximity        :          0       0.00       0.00          0          0          0    0.00000   -1.00000    1.00000      0.900    0    0    0    0    0    0    0    1
  zeroobjective    :          0       0.00       0.00          0          0          0    0.00000   -1.00000    1.00000      0.900    0    0    0    0    0    0    0    1
  dins             :          0       0.00       0.00          0          0          0    0.00000   -1.00000    1.00000      0.900    0    0    0    0    0    0    0    1
LP                 :       Time      Calls Iterations  Iter/call   Iter/sec  Time-0-It Calls-0-It    ItLimit
  primal LP        :       0.55          2          0       0.00       0.00       0.55          2
  dual LP          :       4.11         22      19254     875.18    4684.67       0.00          0
  lex dual LP      :       0.00          0          0       0.00          -
  barrier LP       :       0.00          0          0       0.00          -       0.00          0
  resolve instable :       0.00          0          0       0.00          -
  diving/probing LP:       1.45         16       4566     285.38    3148.97
  strong branching :       0.00          0          0       0.00          -          -          -          0
    (at root node) :          -          0          0       0.00          -
  conflict analysis:       0.00          0          0       0.00          -
B&B Tree           :
  number of runs   :          1
  nodes            :          1 (0 internal, 1 leaves)
  feasible leaves  :          0
  infeas. leaves   :          0
  objective leaves :          1
  nodes (total)    :          1 (0 internal, 1 leaves)
  nodes left       :          0
  max depth        :          0
  max depth (total):          0
  backtracks       :          0 (0.0%)
  early backtracks :          0 (0.0%)
  nodes exc. ref.  :          0 (0.0%)
  delayed cutoffs  :          0
  repropagations   :          0 (0 domain reductions, 0 cutoffs)
  avg switch length:       2.00
  switching time   :       0.00
Root Node          :
  First LP value   : +1.15800000000000e+06
  First LP Iters   :       5132 (7659.70 Iter/sec)
  First LP Time    :       0.67
  Final Dual Bound : +1.30800000000000e+06
  Final Root Iters :      23187
  Root LP Estimate :                     -
Solution           :
  Solutions found  :          2 (2 improvements)
  First Solution   : +1.40800000000000e+06   (in run 1, after 1 nodes, 4.82 seconds, depth 0, found by <feaspump>)
  Gap First Sol.   :      21.59 %
  Gap Last Sol.    :       0.00 %
  Primal Bound     : +1.30800000000000e+06   (in run 1, after 1 nodes, 14.97 seconds, depth 8, found by <farkasdiving>)
  Dual Bound       : +1.30800000000000e+06
  Gap              :       0.00 %
  Avg. Gap         :      41.76 % (625.63 primal-dual integral)
  Tree Data        : 1 nodes (1 visited, 0 inner, 1 leaves, 0 open), progress: 1.0000
Tree Estimation    :       estim       value       trend  resolution      smooth
  wbe              :           1           -           -           -           -
  tree profile     :          -1           -           -           -           -
  gap              :           1     1.00000     1.00000           1           1
  progress         :           1     1.00000     1.00000           1           1
  leaf-frequency   :           1     0.50000     1.00000           1           1
  ssg              :           1     0.00000    -1.00000           1           1
  open-nodes       :           1     0.00000     0.00000           1           1


SCIP> checksol

check best solution
solution is feasible in original problem
Violation          :    absolute    relative
  bounds           : 0.00000e+00 0.00000e+00
  integrality      : 0.00000e+00           -
  LP rows          : 0.00000e+00 0.00000e+00
  constraints      : 0.00000e+00 0.00000e+00

SCIP> write sol /local/tmp/bzfhende-tmpdir/bzfhende.MMMc.301_neos-799838.scip.M6440.enable_treeprofile.sol

written solution information to file </local/tmp/bzfhende-tmpdir/bzfhende.MMMc.301_neos-799838.scip.M640.enable_treeprofile.sol>

SCIP> quit

Disabling tree profile data collection
Read MPS: 1
MIP has 20844 vars and 5976 constraints
Read SOL: 1
Objective value computed by solver: 1308000

Integrality tolerance: 1/10000
Linear tolerance: 1/10000
Objective tolerance: 1/10000

Check SOL: Integrality 1 Constraints 1 Objective 1
Maximum violations: Integrality 0 Constraints 0 Objective 0
@04 1566516293
-----------------------------
Fr 23. Aug 01:24:53 CEST 2019
-----------------------------

=ready=
